100 500 10 200 10 100
12 162
58 136
78 38
62 132
28 148
37 66
58 122
56 86
22 148
27 45
64 105
28 51
35 44
24 33
49 187
92 120
73 78
21 41
100 95
98 172
81 148
86 171
47 98
93 198
88 37
37 44
23 158
51 28
81 63
65 143
66 30
33 18
21 129
95 48
72 55
54 77
43 68
44 84
34 137
92 23
100 180
44 140
37 176
77 172
49 53
90 121
13 166
59 15
21 21
51 129
61 106
51 103
89 87
74 142
75 123
14 31
48 56
13 82
32 162
100 104
75 157
38 122
65 166
73 81
93 23
75 87
18 49
11 105
64 200
36 161
57 23
29 46
42 164
50 114
65 184
89 175
91 76
88 128
30 67
85 63
73 30
83 65
39 142
95 16
76 27
48 85
78 149
44 123
15 84
36 82
86 87
63 51
58 186
85 39
63 191
16 189
46 31
33 124
90 12
84 126
